p cnf 63 230
1 -2 0
-1 -2 0
-3 -4 -5 0
3 4 -5 0
-3 4 5 0
3 -4 5 0
2 -5 -6 0
-2 5 -6 0
2 5 6 0
-2 -5 6 0
8 7 0
8 5 0
-7 -5 -8 0
1 9 -10 0
-1 -9 -10 0
1 -9 10 0
-1 9 10 0
-13 11 0
-13 12 0
-11 -12 13 0
14 -10 0
14 13 0
10 -13 -14 0
15 -7 -16 0
-15 7 -16 0
15 7 16 0
-15 -7 16 0
-17 14 0
-17 -16 0
-14 16 17 0
8 17 -18 0
-8 -17 -18 0
8 -17 18 0
-8 17 18 0
-6 18 -19 0
6 -18 -19 0
-6 -18 19 0
6 18 19 0
-21 12 0
-21 20 0
-12 -20 21 0
-22 15 0
-22 21 0
-15 -21 22 0
20 -11 -23 0
-20 11 -23 0
20 11 23 0
-20 -11 23 0
-9 21 -25 0
9 -21 -25 0
-9 -21 25 0
9 21 25 0
25 15 -26 0
-25 -15 -26 0
25 -15 26 0
-25 15 26 0
27 24 0
27 -26 0
-24 26 -27 0
28 -23 0
28 27 0
23 -27 -28 0
29 -3 0
29 -12 0
3 12 -29 0
-30 28 0
-30 29 0
-28 -29 30 0
-31 -11 0
-31 21 0
11 -21 31 0
-32 31 0
-32 -7 0
-31 7 32 0
-14 -32 -33 0
14 32 -33 0
-14 32 33 0
14 -32 33 0
34 -33 0
34 -31 0
33 31 -34 0
2 15 -35 0
-2 -15 -35 0
2 -15 35 0
-2 15 35 0
36 34 0
36 35 0
-34 -35 -36 0
37 -30 0
37 36 0
30 -36 -37 0
-22 37 -38 0
22 -37 -38 0
-22 -37 38 0
22 37 38 0
13 12 -39 0
-13 -12 -39 0
13 -12 39 0
-13 12 39 0
-40 39 0
-40 15 0
-39 -15 40 0
40 16 -41 0
-40 -16 -41 0
40 -16 41 0
-40 16 41 0
-26 -3 -42 0
26 3 -42 0
-26 3 42 0
26 -3 42 0
-43 -33 0
-43 -20 0
33 20 43 0
-42 -43 -44 0
42 43 -44 0
-42 43 44 0
42 -43 44 0
45 -41 0
45 44 0
41 -44 -45 0
46 9 0
46 14 0
-9 -14 -46 0
-47 12 0
-47 12 0
-12 47 0
48 47 0
48 -3 0
-47 3 -48 0
-49 32 0
-49 48 0
-32 -48 49 0
50 4 0
50 -10 0
-4 10 -50 0
-49 50 -51 0
49 -50 -51 0
-49 -50 51 0
49 50 51 0
-52 16 0
-52 -5 0
-16 5 52 0
-53 -51 0
-53 52 0
51 -52 53 0
54 -46 0
54 53 0
46 -53 -54 0
55 -45 0
55 -54 0
45 54 -55 0
-56 4 0
-56 -52 0
-4 52 56 0
-9 -32 -57 0
9 32 -57 0
-9 32 57 0
9 -32 57 0
58 -10 0
58 52 0
10 -52 -58 0
-59 -57 0
-59 -58 0
57 58 59 0
60 56 0
60 -59 0
-56 59 -60 0
-61 -55 0
-61 60 0
55 -60 61 0
-62 -38 0
-62 61 0
38 -61 62 0
63 -19 0
63 62 0
19 -62 -63 0
23 -38 41 -28 33 -39 0
-55 48 0
63 -4 39 26 0
13 20 0
-1 -63 61 -52 -60 0
2 13 -29 31 -36 -38 0
22 -38 0
31 44 -48 0
-53 -54 -59 26 -51 0
32 27 48 -7 20 0
38 48 0
-60 52 -18 44 -7 0
42 12 -62 -43 -60 17 0
-46 55 0
34 15 0
23 -44 0
49 62 29 22 -26 8 0
60 -20 -1 6 0
-37 -59 44 60 51 33 0
-5 57 24 0
27 -40 32 12 29 0
61 -62 0
1 -25 -57 -3 0
-50 31 47 0
4 52 12 0
-40 -31 5 0
-6 -9 -17 -5 0
-1 2 0
-7 -16 -53 61 0
49 -48 -37 -1 0
2 8 -30 0
-48 11 -50 56 -21 0
38 -24 0
29 9 50 3 0
7 23 16 0
-47 29 -44 2 31 -4 0
-38 61 30 41 46 0
30 -36 0
53 -58 -16 28 -63 0
9 35 60 -58 0
22 -53 47 15 0
29 62 50 -28 43 0
-45 -3 -49 0
-41 -42 63 3 17 52 0
-37 -20 -34 -1 0
-12 4 26 0
48 -4 7 -8 -9 0
13 -28 -34 27 -18 -39 0
42 31 49 45 5 -32 0
-40 10 0
31 -33 -51 58 61 0
-17 18 0
-11 38 31 1 -18 -39 0
63 0
